NAME: cum110.tsp
TYPE: TSP
COMMENT: User-generated TSP file
DIMENSION: 550
EDGE_WEIGHT_TYPE: EUC_2D
NODE_COORD_SECTION
1 388.0 359.0
2 506.0 30.0
3 44.0 311.0
4 285.0 249.0
5 85.0 166.0
6 110.0 82.0
7 227.0 361.0
8 405.0 352.0
9 57.0 174.0
10 64.0 349.0
11 156.0 400.0
12 457.0 56.0
13 523.0 5.0
14 175.0 32.0
15 14.0 319.0
16 265.0 402.0
17 190.0 198.0
18 528.0 460.0
19 233.0 358.0
20 240.0 205.0
21 320.0 89.0
22 193.0 501.0
23 267.0 465.0
24 175.0 356.0
25 465.0 428.0
26 495.0 425.0
27 292.0 20.0
28 324.0 29.0
29 257.0 278.0
30 219.0 218.0
31 347.0 320.0
32 507.0 49.0
33 540.0 168.0
34 411.0 224.0
35 104.0 92.0
36 491.0 191.0
37 380.0 520.0
38 475.0 238.0
39 182.0 86.0
40 227.0 141.0
41 320.0 347.0
42 461.0 72.0
43 389.0 26.0
44 333.0 80.0
45 496.0 204.0
46 293.0 105.0
47 367.0 390.0
48 338.0 123.0
49 198.0 463.0
50 32.0 350.0
51 475.0 371.0
52 37.0 403.0
53 404.0 135.0
54 336.0 162.0
55 294.0 409.0
56 282.0 477.0
57 118.0 81.0
58 238.0 163.0
59 340.0 338.0
60 479.0 156.0
61 493.0 142.0
62 144.0 517.0
63 225.0 466.0
64 73.0 101.0
65 53.0 425.0
66 74.0 296.0
67 262.0 491.0
68 71.0 384.0
69 411.0 523.0
70 363.0 156.0
71 221.0 30.0
72 391.0 17.0
73 394.0 364.0
74 134.0 19.0
75 449.0 311.0
76 158.0 408.0
77 164.0 366.0
78 234.0 53.0
79 19.0 112.0
80 526.0 485.0
81 206.0 82.0
82 545.0 495.0
83 348.0 45.0
84 357.0 105.0
85 337.0 417.0
86 460.0 3.0
87 163.0 210.0
88 340.0 311.0
89 424.0 171.0
90 528.0 292.0
91 234.0 263.0
92 385.0 112.0
93 77.0 150.0
94 202.0 521.0
95 326.0 15.0
96 470.0 136.0
97 333.0 232.0
98 223.0 481.0
99 353.0 12.0
100 33.0 537.0
101 134.0 433.0
102 360.0 23.0
103 320.0 528.0
104 412.0 20.0
105 242.0 302.0
106 140.0 260.0
107 264.0 531.0
108 393.0 391.0
109 203.0 531.0
110 258.0 57.0
111 38.0 137.0
112 196.0 410.0
113 283.0 250.0
114 123.0 480.0
115 469.0 166.0
116 34.0 294.0
117 56.0 265.0
118 204.0 467.0
119 116.0 391.0
120 535.0 452.0
121 75.0 403.0
122 418.0 548.0
123 484.0 39.0
124 110.0 196.0
125 186.0 202.0
126 491.0 432.0
127 159.0 74.0
128 252.0 456.0
129 372.0 304.0
130 282.0 360.0
131 304.0 104.0
132 104.0 217.0
133 425.0 141.0
134 425.0 5.0
135 455.0 384.0
136 413.0 341.0
137 240.0 391.0
138 370.0 15.0
139 176.0 180.0
140 341.0 457.0
141 435.0 431.0
142 193.0 8.0
143 83.0 146.0
144 378.0 360.0
145 447.0 248.0
146 321.0 516.0
147 364.0 328.0
148 34.0 276.0
149 120.0 491.0
150 433.0 254.0
151 337.0 62.0
152 307.0 400.0
153 512.0 250.0
154 535.0 451.0
155 321.0 138.0
156 83.0 155.0
157 549.0 11.0
158 233.0 402.0
159 440.0 486.0
160 522.0 108.0
161 220.0 3.0
162 175.0 219.0
163 36.0 340.0
164 464.0 429.0
165 219.0 259.0
166 59.0 52.0
167 521.0 142.0
168 543.0 533.0
169 450.0 122.0
170 53.0 467.0
171 428.0 180.0
172 283.0 151.0
173 437.0 248.0
174 405.0 393.0
175 518.0 438.0
176 152.0 59.0
177 32.0 192.0
178 226.0 547.0
179 404.0 460.0
180 154.0 122.0
181 24.0 539.0
182 124.0 202.0
183 462.0 358.0
184 192.0 322.0
185 507.0 104.0
186 186.0 247.0
187 454.0 425.0
188 286.0 119.0
189 80.0 260.0
190 382.0 284.0
191 180.0 209.0
192 340.0 100.0
193 488.0 322.0
194 37.0 163.0
195 246.0 525.0
196 294.0 405.0
197 281.0 14.0
198 510.0 419.0
199 307.0 347.0
200 27.0 313.0
201 306.0 450.0
202 540.0 320.0
203 514.0 302.0
204 510.0 467.0
205 453.0 144.0
206 61.0 355.0
207 104.0 37.0
208 34.0 102.0
209 131.0 12.0
210 129.0 242.0
211 310.0 18.0
212 22.0 159.0
213 166.0 12.0
214 4.0 504.0
215 4.0 521.0
216 249.0 539.0
217 71.0 59.0
218 294.0 33.0
219 138.0 202.0
220 371.0 107.0
221 73.0 508.0
222 446.0 533.0
223 4.0 300.0
224 401.0 538.0
225 110.0 102.0
226 81.0 343.0
227 166.0 52.0
228 386.0 550.0
229 361.0 521.0
230 248.0 292.0
231 329.0 410.0
232 91.0 168.0
233 73.0 539.0
234 301.0 212.0
235 430.0 395.0
236 257.0 323.0
237 239.0 359.0
238 249.0 124.0
239 44.0 37.0
240 74.0 378.0
241 5.0 439.0
242 109.0 82.0
243 467.0 235.0
244 469.0 482.0
245 350.0 381.0
246 337.0 246.0
247 448.0 324.0
248 424.0 6.0
249 183.0 416.0
250 226.0 484.0
251 172.0 331.0
252 305.0 70.0
253 168.0 492.0
254 508.0 417.0
255 536.0 383.0
256 253.0 293.0
257 513.0 299.0
258 498.0 319.0
259 248.0 193.0
260 550.0 489.0
261 218.0 20.0
262 398.0 96.0
263 203.0 59.0
264 478.0 104.0
265 234.0 201.0
266 479.0 198.0
267 291.0 128.0
268 533.0 329.0
269 397.0 83.0
270 441.0 162.0
271 84.0 55.0
272 187.0 477.0
273 400.0 396.0
274 29.0 388.0
275 21.0 472.0
276 271.0 309.0
277 524.0 185.0
278 416.0 195.0
279 7.0 286.0
280 323.0 237.0
281 509.0 135.0
282 432.0 159.0
283 24.0 499.0
284 126.0 506.0
285 196.0 254.0
286 50.0 436.0
287 483.0 348.0
288 278.0 294.0
289 144.0 77.0
290 221.0 520.0
291 527.0 419.0
292 195.0 396.0
293 531.0 308.0
294 150.0 485.0
295 289.0 296.0
296 546.0 549.0
297 385.0 87.0
298 251.0 63.0
299 192.0 223.0
300 410.0 135.0
301 546.0 109.0
302 119.0 165.0
303 282.0 59.0
304 233.0 163.0
305 338.0 157.0
306 533.0 532.0
307 170.0 216.0
308 34.0 389.0
309 437.0 213.0
310 379.0 497.0
311 22.0 261.0
312 516.0 167.0
313 183.0 492.0
314 448.0 410.0
315 349.0 321.0
316 118.0 245.0
317 471.0 130.0
318 297.0 37.0
319 119.0 211.0
320 324.0 309.0
321 439.0 58.0
322 268.0 542.0
323 478.0 461.0
324 10.0 424.0
325 353.0 530.0
326 450.0 253.0
327 1.0 378.0
328 527.0 333.0
329 209.0 245.0
330 433.0 509.0
331 126.0 260.0
332 130.0 295.0
333 185.0 399.0
334 138.0 356.0
335 166.0 419.0
336 300.0 426.0
337 302.0 107.0
338 387.0 116.0
339 58.0 206.0
340 132.0 166.0
341 2.0 388.0
342 7.0 480.0
343 175.0 458.0
344 66.0 350.0
345 386.0 241.0
346 54.0 353.0
347 191.0 333.0
348 509.0 421.0
349 255.0 70.0
350 30.0 354.0
351 103.0 225.0
352 188.0 8.0
353 246.0 426.0
354 458.0 273.0
355 499.0 303.0
356 484.0 494.0
357 492.0 132.0
358 278.0 27.0
359 32.0 335.0
360 194.0 100.0
361 490.0 340.0
362 364.0 290.0
363 441.0 381.0
364 174.0 147.0
365 390.0 54.0
366 361.0 63.0
367 408.0 5.0
368 53.0 51.0
369 127.0 113.0
370 504.0 56.0
371 63.0 329.0
372 101.0 257.0
373 336.0 242.0
374 148.0 69.0
375 43.0 473.0
376 356.0 167.0
377 411.0 403.0
378 514.0 189.0
379 455.0 149.0
380 69.0 379.0
381 436.0 327.0
382 329.0 70.0
383 77.0 457.0
384 98.0 427.0
385 83.0 299.0
386 7.0 294.0
387 13.0 335.0
388 323.0 388.0
389 23.0 317.0
390 248.0 168.0
391 475.0 36.0
392 155.0 15.0
393 401.0 51.0
394 1.0 187.0
395 353.0 395.0
396 67.0 188.0
397 267.0 338.0
398 222.0 380.0
399 196.0 537.0
400 187.0 228.0
401 494.0 69.0
402 544.0 35.0
403 269.0 458.0
404 182.0 166.0
405 445.0 20.0
406 88.0 482.0
407 353.0 104.0
408 330.0 184.0
409 202.0 213.0
410 158.0 327.0
411 183.0 527.0
412 173.0 412.0
413 19.0 417.0
414 42.0 8.0
415 266.0 431.0
416 51.0 342.0
417 36.0 456.0
418 167.0 396.0
419 114.0 540.0
420 72.0 509.0
421 510.0 31.0
422 186.0 118.0
423 394.0 303.0
424 128.0 520.0
425 340.0 500.0
426 126.0 258.0
427 121.0 282.0
428 174.0 90.0
429 186.0 346.0
430 186.0 208.0
431 29.0 83.0
432 314.0 294.0
433 501.0 421.0
434 152.0 34.0
435 416.0 51.0
436 431.0 211.0
437 292.0 168.0
438 185.0 241.0
439 248.0 490.0
440 146.0 262.0
441 305.0 95.0
442 29.0 500.0
443 394.0 47.0
444 176.0 473.0
445 203.0 435.0
446 30.0 110.0
447 6.0 524.0
448 338.0 536.0
449 393.0 79.0
450 374.0 83.0
451 373.0 254.0
452 438.0 509.0
453 259.0 85.0
454 98.0 446.0
455 474.0 178.0
456 544.0 50.0
457 455.0 195.0
458 353.0 401.0
459 353.0 364.0
460 376.0 69.0
461 528.0 332.0
462 57.0 42.0
463 56.0 327.0
464 380.0 247.0
465 510.0 424.0
466 296.0 39.0
467 65.0 307.0
468 388.0 246.0
469 289.0 346.0
470 401.0 59.0
471 24.0 346.0
472 58.0 294.0
473 515.0 95.0
474 81.0 478.0
475 436.0 280.0
476 139.0 197.0
477 428.0 495.0
478 477.0 50.0
479 385.0 76.0
480 66.0 457.0
481 418.0 204.0
482 482.0 111.0
483 498.0 276.0
484 6.0 484.0
485 467.0 317.0
486 135.0 211.0
487 488.0 468.0
488 295.0 217.0
489 263.0 465.0
490 476.0 37.0
491 94.0 142.0
492 145.0 279.0
493 321.0 276.0
494 9.0 299.0
495 416.0 382.0
496 345.0 248.0
497 160.0 274.0
498 191.0 526.0
499 182.0 346.0
500 81.0 416.0
501 180.0 19.0
502 75.0 407.0
503 428.0 441.0
504 213.0 172.0
505 146.0 339.0
506 20.0 266.0
507 539.0 361.0
508 543.0 39.0
509 1.0 435.0
510 141.0 204.0
511 410.0 492.0
512 91.0 130.0
513 515.0 270.0
514 431.0 12.0
515 96.0 70.0
516 510.0 136.0
517 46.0 62.0
518 58.0 326.0
519 324.0 318.0
520 90.0 202.0
521 65.0 121.0
522 440.0 448.0
523 157.0 325.0
524 197.0 181.0
525 424.0 334.0
526 149.0 369.0
527 99.0 392.0
528 301.0 266.0
529 274.0 148.0
530 48.0 247.0
531 418.0 487.0
532 220.0 311.0
533 543.0 73.0
534 375.0 218.0
535 177.0 425.0
536 182.0 355.0
537 550.0 335.0
538 86.0 252.0
539 117.0 394.0
540 218.0 138.0
541 425.0 67.0
542 38.0 117.0
543 272.0 107.0
544 248.0 403.0
545 153.0 58.0
546 103.0 142.0
547 521.0 192.0
548 422.0 262.0
549 409.0 269.0
550 246.0 158.0
EOF

